1 982 6
2 884 6
3 873 6
4 866 6
5 846 6
6 836 6
8 824 6
13 816 6
16 814 6
51 796 6
111 792 6
177 791 6
331 790 6
428 784 6
910 777 6



1 979 6
2 870 6
3 843 6
5 841 6
6 819 6
8 797 6
11 792 6
24 765 6
744 763 6



1 894 7
3 838 6
5 837 6
7 824 6
8 780 6
126 775 6
498 770 6



1 948 7
2 831 6
12 820 7
15 816 6
27 804 6
29 789 6
44 782 6
612 763 6



1 955 6
2 876 6
3 825 6
4 785 6
69 777 6
75 774 6



